BAYES
100
2 2 2 2 2 2 2 2 2 2 2 2 2 2 2 2 2 2 2 2 2 2 2 2 2 2 2 2 2 2 2 2 2 2 2 2 2 2 2 2 2 2 2 2 2 2 2 2 2 2 2 2 2 2 2 2 2 2 2 2 2 2 2 2 2 2 2 2 2 2 2 2 2 2 2 2 2 2 2 2 2 2 2 2 2 2 2 2 2 2 2 2 2 2 2 2 2 2 2 2
100
1 0
2 0 1
2 1 2
2 2 3
2 3 4
2 4 5
2 5 6
2 6 7
2 7 8
2 8 9
2 0 10
3 1 10 11
3 2 11 12
3 3 12 13
3 4 13 14
3 5 14 15
3 6 15 16
3 7 16 17
3 8 17 18
3 9 18 19
2 10 20
3 11 20 21
3 12 21 22
3 13 22 23
3 14 23 24
3 15 24 25
3 16 25 26
3 17 26 27
3 18 27 28
3 19 28 29
2 20 30
3 21 30 31
3 22 31 32
3 23 32 33
3 24 33 34
3 25 34 35
3 26 35 36
3 27 36 37
3 28 37 38
3 29 38 39
2 30 40
3 31 40 41
3 32 41 42
3 33 42 43
3 34 43 44
3 35 44 45
3 36 45 46
3 37 46 47
3 38 47 48
3 39 48 49
2 40 50
3 41 50 51
3 42 51 52
3 43 52 53
3 44 53 54
3 45 54 55
3 46 55 56
3 47 56 57
3 48 57 58
3 49 58 59
2 50 60
3 51 60 61
3 52 61 62
3 53 62 63
3 54 63 64
3 55 64 65
3 56 65 66
3 57 66 67
3 58 67 68
3 59 68 69
2 60 70
3 61 70 71
3 62 71 72
3 63 72 73
3 64 73 74
3 65 74 75
3 66 75 76
3 67 76 77
3 68 77 78
3 69 78 79
2 70 80
3 71 80 81
3 72 81 82
3 73 82 83
3 74 83 84
3 75 84 85
3 76 85 86
3 77 86 87
3 78 87 88
3 79 88 89
2 80 90
3 81 90 91
3 82 91 92
3 83 92 93
3 84 93 94
3 85 94 95
3 86 95 96
3 87 96 97
3 88 97 98
3 89 98 99

2
0.42598 0.57402
4
0.0918073 0.908193 0.0548454 0.945155
4
0.381668 0.618332 0.0876071 0.912393
4
0.890366 0.109634 0.989326 0.0106741
4
0.677986 0.322014 0.768316 0.231684
4
0.455712 0.544288 0.250727 0.749273
4
0.0380632 0.961937 0.520243 0.479757
4
0.0 1.0 1.0 0.0
4
0.0 1.0 1.0 0.0
4
0.897629 0.102371 0.470939 0.529061
4
0.0 1.0 1.0 0.0
8
0.0 1.0 1.0 0.0 1.0 0.0 0.0 1.0
8
0.0 1.0 0.0 1.0 1.0 0.0 1.0 0.0
8
0.0 1.0 1.0 0.0 0.0 1.0 0.0 1.0
8
0.14987 0.85013 0.899264 0.100736 0.76767 0.23233 0.790511 0.209489
8
0.287912 0.712088 0.14271 0.85729 0.465805 0.534195 0.430671 0.569329
8
0.995443 0.00455684 0.328301 0.671699 0.065062 0.934938 0.406331 0.593669
8
0.255929 0.744071 0.7094 0.2906 0.393488 0.606512 0.872777 0.127223
8
0.887021 0.112979 0.54447 0.45553 0.717791 0.282209 0.762222 0.237778
8
1.0 0.0 0.0 1.0 0.0 1.0 1.0 0.0
4
0.569339 0.430661 0.561874 0.438126
8
0.337009 0.662991 0.352385 0.647615 0.807933 0.192067 0.624921 0.375079
8
0.0 1.0 0.0 1.0 1.0 0.0 1.0 0.0
8
0.0 1.0 0.0 1.0 0.0 1.0 1.0 0.0
8
0.282986 0.717014 0.323356 0.676644 0.656163 0.343837 0.827456 0.172544
8
1.0 0.0 1.0 0.0 1.0 0.0 0.0 1.0
8
1.0 0.0 1.0 0.0 0.0 1.0 1.0 0.0
8
0.0899708 0.910029 0.484302 0.515698 0.596054 0.403946 0.714892 0.285108
8
0.869792 0.130208 0.770484 0.229516 0.0686147 0.931385 0.138973 0.861027
8
0.0 1.0 0.0 1.0 1.0 0.0 0.0 1.0
4
1.0 0.0 0.0 1.0
8
0.955335 0.0446645 0.743546 0.256454 0.563902 0.436098 0.373721 0.626279
8
0.721941 0.278059 0.319894 0.680106 0.0583966 0.941603 0.291984 0.708016
8
1.0 0.0 1.0 0.0 1.0 0.0 0.0 1.0
8
0.616221 0.383779 0.8876 0.1124 0.491377 0.508623 0.386705 0.613295
8
0.630351 0.369649 0.541081 0.458919 0.17911 0.82089 0.444837 0.555163
8
1.0 0.0 1.0 0.0 0.0 1.0 0.0 1.0
8
1.0 0.0 1.0 0.0 1.0 0.0 0.0 1.0
8
0.0 1.0 0.0 1.0 1.0 0.0 0.0 1.0
8
0.0 1.0 0.0 1.0 1.0 0.0 0.0 1.0
4
1.0 0.0 0.0 1.0
8
0.964521 0.0354794 0.395137 0.604863 0.120634 0.879366 0.920736 0.0792643
8
0.0 1.0 1.0 0.0 1.0 0.0 1.0 0.0
8
0.114559 0.885441 0.103112 0.896888 0.640361 0.359639 0.281548 0.718452
8
1.0 0.0 1.0 0.0 1.0 0.0 0.0 1.0
8
1.0 0.0 1.0 0.0 0.0 1.0 1.0 0.0
8
0.0 1.0 0.0 1.0 1.0 0.0 0.0 1.0
8
0.420245 0.579755 0.985024 0.0149764 0.0524981 0.947502 0.34098 0.65902
8
1.0 0.0 0.0 1.0 0.0 1.0 0.0 1.0
8
0.0 1.0 1.0 0.0 0.0 1.0 0.0 1.0
4
0.105455 0.894545 0.889382 0.110618
8
1.0 0.0 0.0 1.0 1.0 0.0 1.0 0.0
8
0.658215 0.341785 0.508367 0.491633 0.943545 0.0564554 0.344342 0.655658
8
0.399269 0.600731 0.934229 0.065771 0.638168 0.361832 0.819513 0.180487
8
0.690666 0.309334 0.160494 0.839506 0.929764 0.0702362 0.404879 0.595121
8
0.410599 0.589401 0.851919 0.148081 0.954203 0.0457972 0.00599347 0.994007
8
1.0 0.0 1.0 0.0 0.0 1.0 0.0 1.0
8
0.487911 0.512089 0.61719 0.38281 0.126972 0.873028 0.742174 0.257826
8
0.0 1.0 1.0 0.0 0.0 1.0 1.0 0.0
8
0.259999 0.740001 0.0345257 0.965474 0.678961 0.321039 0.898166 0.101834
4
0.598213 0.401787 0.588832 0.411168
8
0.0 1.0 1.0 0.0 0.0 1.0 0.0 1.0
8
0.570054 0.429946 0.94457 0.0554301 0.247701 0.752299 0.517502 0.482498
8
0.628655 0.371345 0.570405 0.429595 0.599824 0.400176 0.116566 0.883434
8
0.0 1.0 1.0 0.0 1.0 0.0 0.0 1.0
8
1.0 0.0 1.0 0.0 1.0 0.0 0.0 1.0
8
1.0 0.0 0.0 1.0 1.0 0.0 1.0 0.0
8
0.956862 0.0431377 0.809013 0.190987 0.527328 0.472672 0.572714 0.427286
8
0.372958 0.627042 0.142768 0.857232 0.692159 0.307841 0.620659 0.379341
8
0.519665 0.480335 0.249314 0.750686 0.230675 0.769325 0.119489 0.880511
4
0.0 1.0 1.0 0.0
8
0.224619 0.775381 0.651194 0.348806 0.264793 0.735207 0.483749 0.516251
8
1.0 0.0 1.0 0.0 1.0 0.0 0.0 1.0
8
1.0 0.0 1.0 0.0 1.0 0.0 0.0 1.0
8
0.0 1.0 1.0 0.0 1.0 0.0 0.0 1.0
8
0.0215228 0.978477 0.700228 0.299772 0.483781 0.516219 0.681793 0.318207
8
1.0 0.0 1.0 0.0 1.0 0.0 0.0 1.0
8
0.0 1.0 1.0 0.0 0.0 1.0 0.0 1.0
8
0.419747 0.580253 0.769017 0.230983 0.294953 0.705047 0.90418 0.0958203
8
1.0 0.0 0.0 1.0 0.0 1.0 1.0 0.0
4
1.0 0.0 0.0 1.0
8
0.0 1.0 1.0 0.0 1.0 0.0 1.0 0.0
8
0.885628 0.114372 0.133303 0.866697 0.413156 0.586844 0.105521 0.894479
8
0.325624 0.674376 0.444903 0.555097 0.965373 0.0346274 0.656362 0.343638
8
0.288967 0.711033 0.638294 0.361706 0.0810285 0.918971 0.0963097 0.90369
8
1.0 0.0 1.0 0.0 0.0 1.0 0.0 1.0
8
0.295619 0.704381 0.550956 0.449044 0.773499 0.226501 0.591853 0.408147
8
1.0 0.0 1.0 0.0 0.0 1.0 0.0 1.0
8
0.0 1.0 1.0 0.0 0.0 1.0 1.0 0.0
8
1.0 0.0 1.0 0.0 1.0 0.0 0.0 1.0
4
0.0 1.0 1.0 0.0
8
1.0 0.0 0.0 1.0 0.0 1.0 0.0 1.0
8
1.0 0.0 0.0 1.0 1.0 0.0 0.0 1.0
8
1.0 0.0 1.0 0.0 0.0 1.0 1.0 0.0
8
0.0 1.0 1.0 0.0 1.0 0.0 1.0 0.0
8
0.0 1.0 1.0 0.0 0.0 1.0 0.0 1.0
8
1.0 0.0 0.0 1.0 0.0 1.0 1.0 0.0
8
1.0 0.0 1.0 0.0 0.0 1.0 1.0 0.0
8
0.828774 0.171226 0.781148 0.218852 0.673117 0.326883 0.988612 0.0113878
8
1.0 0.0 1.0 0.0 0.0 1.0 1.0 0.0